154 5
10 10 10 10 10 

0 0 0 0 0 0 2 2 14 
0 0 0 0 0 0 2 3 5 
10 1 0 0 0 0 2 12 4 
2 4 0 0 0 0 3 11 8 6 
6 7 0 0 0 0 2 10 7 
6 7 0 0 0 0 1 7 
4 9 0 0 0 0 2 9 17 
1 3 0 0 0 0 1 10 
10 8 0 0 0 0 1 13 
5 6 0 0 0 0 1 13 
2 1 0 0 0 0 1 13 
8 4 0 0 0 0 1 13 
0 0 0 0 0 0 1 26 
0 0 0 0 0 0 3 15 19 134 
3 0 0 1 0 0 3 21 18 16 
10 0 0 4 0 0 1 17 
7 0 0 6 0 0 3 24 23 20 
3 0 0 5 0 0 3 24 23 20 
7 0 0 7 0 0 2 23 20 
7 0 0 3 0 0 1 22 
5 0 0 4 0 0 1 22 
2 0 0 6 0 0 1 25 
6 0 0 8 0 0 1 25 
4 0 0 6 0 0 1 25 
0 0 0 0 0 0 1 26 
0 0 0 0 0 0 2 27 39 
0 0 0 0 0 0 4 28 29 32 34 
3 0 1 0 0 0 2 37 30 
5 0 6 0 0 0 4 37 35 33 44 
8 0 6 0 0 0 1 31 
9 0 4 0 0 0 2 35 33 
1 0 10 0 0 0 2 35 33 
9 0 5 0 0 0 1 36 
10 0 4 0 0 0 1 35 
1 0 7 0 0 0 1 38 
10 0 6 0 0 0 1 38 
1 0 1 0 0 0 1 38 
0 0 0 0 0 0 1 51 
0 0 0 0 0 0 3 40 41 42 
10 0 1 0 0 0 3 47 44 43 
9 0 3 0 0 0 3 47 44 43 
5 0 7 0 0 0 3 49 47 44 
8 0 4 0 0 0 2 49 45 
8 0 7 0 0 0 1 45 
4 0 5 0 0 0 1 46 
6 0 6 0 0 0 2 48 119 
4 0 7 0 0 0 1 48 
7 0 6 0 0 0 1 50 
8 0 4 0 0 0 1 50 
0 0 0 0 0 0 1 51 
0 0 0 0 0 0 2 52 64 
0 0 0 0 0 0 3 53 55 56 
1 0 0 0 1 0 2 62 54 
9 0 0 0 4 0 2 59 57 
4 0 0 0 5 0 2 61 59 
1 0 0 0 5 0 2 61 59 
9 0 0 0 1 0 2 58 144 
6 0 0 0 6 0 2 61 60 
9 0 0 0 6 0 1 60 
10 0 0 0 6 0 1 63 
9 0 0 0 7 0 1 63 
8 0 0 0 9 0 1 63 
0 0 0 0 0 0 2 96 108 
0 0 0 0 0 0 3 65 69 94 
3 1 1 0 2 0 2 93 66 
8 7 3 0 7 0 2 91 67 
2 7 5 0 6 0 1 68 
3 5 5 0 8 0 3 90 89 70 
6 3 4 0 2 0 5 92 89 88 87 72 
10 6 5 0 9 0 1 71 
3 6 7 0 4 0 3 88 87 72 
2 4 4 0 3 0 2 86 73 
5 6 6 0 10 0 2 85 74 
1 6 6 0 5 0 1 75 
2 4 3 0 2 0 1 76 
1 7 5 0 3 0 2 84 77 
3 5 4 0 5 0 4 83 82 81 78 
4 8 4 0 5 0 1 79 
9 3 3 0 3 0 2 80 116 
4 3 5 0 3 0 1 95 
4 5 4 0 3 0 1 95 
3 3 6 0 4 0 1 95 
7 3 7 0 7 0 1 95 
5 6 9 0 6 0 1 95 
6 5 7 0 10 0 1 95 
3 4 10 0 2 0 1 95 
3 5 4 0 5 0 1 95 
1 9 3 0 4 0 1 95 
9 5 5 0 4 0 1 95 
10 3 3 0 6 0 1 95 
7 4 6 0 5 0 1 95 
7 3 5 0 5 0 1 95 
10 8 5 0 10 0 1 95 
2 6 6 0 2 0 1 95 
0 0 0 0 0 0 1 154 
0 0 0 0 0 0 3 97 106 134 
7 0 0 0 0 2 4 105 104 99 98 
3 0 0 0 0 8 2 103 101 
8 0 0 0 0 4 1 100 
8 0 0 0 0 3 1 101 
5 0 0 0 0 4 1 102 
8 0 0 0 0 10 1 107 
4 0 0 0 0 5 1 107 
1 0 0 0 0 3 1 107 
2 0 0 0 0 6 1 107 
7 0 0 0 0 5 1 107 
0 0 0 0 0 0 2 130 142 
0 0 0 0 0 0 1 109 
1 1 1 0 0 0 1 110 
2 1 10 0 0 0 2 112 111 
10 2 6 0 0 0 2 115 113 
3 4 2 0 0 0 1 113 
2 4 7 0 0 0 2 116 114 
8 7 6 0 0 0 3 119 118 117 
3 9 3 0 0 0 2 118 116 
1 7 6 0 0 0 4 124 121 120 143 
9 3 4 0 0 0 2 124 121 
10 3 6 0 0 0 1 120 
3 9 2 0 0 0 1 120 
5 5 5 0 0 0 2 125 122 
5 3 7 0 0 0 2 125 122 
1 7 3 0 0 0 2 128 123 
1 5 6 0 0 0 2 127 126 
2 9 2 0 0 0 1 125 
2 10 6 0 0 0 1 126 
6 3 5 0 0 0 1 129 
4 5 8 0 0 0 1 129 
1 3 5 0 0 0 1 129 
0 0 0 0 0 0 1 154 
0 0 0 0 0 0 3 131 135 136 
9 0 0 0 2 0 2 134 132 
2 0 0 0 9 0 2 139 133 
4 0 0 0 5 0 2 140 137 
9 0 0 0 4 0 2 139 137 
8 0 0 0 3 0 2 139 137 
2 0 0 0 5 0 1 137 
10 0 0 0 7 0 2 138 144 
7 0 0 0 3 0 1 141 
8 0 0 0 2 0 1 141 
7 0 0 0 10 0 1 141 
0 0 0 0 0 0 1 154 
0 0 0 0 0 0 4 143 144 146 147 
10 0 0 0 1 0 1 145 
4 0 0 0 8 0 1 145 
9 0 0 0 5 0 3 150 149 148 
4 0 0 0 5 0 3 150 149 148 
9 0 0 0 7 0 2 149 148 
10 0 0 0 3 0 1 151 
3 0 0 0 5 0 1 151 
3 0 0 0 5 0 1 151 
6 0 0 0 7 0 1 152 
6 0 0 0 4 0 1 153 
0 0 0 0 0 0 1 154 
0 0 0 0 0 0 0 
